Quantum-Cryptanalysis/instances/samples/hf_n32/hf_n32_cnf11.sol
c DPLL-like Solver for max-min SAT
f file hf_n32_cnf11.cnf
p cnf 32 220
s max  220 -30 8 -7 -5 -6 -22 -4 1 -2 17 12 11 31 -9 15 14 -16 -13 -24 -25 -3 -29 -18 -10 -23 -28 -20 -19 -27 -21 -26 -32
s min  192 10 12 11 31 15 16 -28 -13 14 24 -32 -20 9 -27 -17 -22 -8 -21 -19 -23 30 25 18 29 26 -1 2 -3 4 5 6 -7